Version identifier: 22.1.1.0 | 2022-11-28 | 9160aff4d
CPXPARAM_ClockType                               1
CPXPARAM_Read_DataCheck                          1
CPXPARAM_Threads                                 1
CPXPARAM_TimeLimit                               7200
CPXPARAM_MIP_Tolerances_AbsMIPGap                0
CPXPARAM_MIP_Tolerances_MIPGap                   0
CPXPARAM_MIP_Tolerances_Integrality              0
Tried aggregator 5 times.
MIP Presolve eliminated 25015 rows and 6696 columns.
MIP Presolve modified 958 coefficients.
Aggregator did 2583 substitutions.
Reduced MIP has 10711 rows, 6081 columns, and 35966 nonzeros.
Reduced MIP has 6081 binaries, 0 generals, 0 SOSs, and 0 indicators.
Presolve time = 0.10 sec. (76.56 ticks)
Found incumbent of value 9.000000 after 0.18 sec. (118.81 ticks)
Probing time = 0.02 sec. (3.97 ticks)
Tried aggregator 1 time.
Detecting symmetries...
Reduced MIP has 10711 rows, 6081 columns, and 35966 nonzeros.
Reduced MIP has 6081 binaries, 0 generals, 0 SOSs, and 0 indicators.
Presolve time = 0.05 sec. (25.04 ticks)
Probing time = 0.01 sec. (3.81 ticks)
Clique table members: 17282.
MIP emphasis: balance optimality and feasibility.
MIP search method: dynamic search.
Parallel mode: none, using 1 thread.
Root relaxation solution time = 1.06 sec. (744.60 ticks)

        Nodes                                         Cuts/
   Node  Left     Objective  IInf  Best Integer    Best Bound    ItCnt     Gap

*     0+    0                            9.0000    33495.0000              --- 
      0     0     5075.0000  1903        9.0000     5075.0000     3404     --- 
*     0+    0                         1827.0000     5075.0000           177.78%
      0     0     5075.0000  1052     1827.0000     Cuts: 173    12339  177.78%
*     0+    0                         5075.0000     5075.0000             0.00%
      0     0        cutoff           5075.0000     5075.0000    12339    0.00%
Elapsed time = 9.24 sec. (7659.31 ticks, tree = 0.01 MB, solutions = 3)

Clique cuts applied:  52
Implied bound cuts applied:  7
Zero-half cuts applied:  52

Root node processing (before b&c):
  Real time             =    9.24 sec. (7660.16 ticks)
Sequential b&c:
  Real time             =    0.00 sec. (0.00 ticks)
                          ------------
Total (root+branch&cut) =    9.24 sec. (7660.16 ticks)
Solution is feasible.

---------------------
@@@ MIP_optimal
>>> Benchmark mc2024_track1_181.cnf k 10 OPT 5075 TimeCost 17.1967933177948 TimeSolve 9.32893991470337 TimeRead 0.006020784378051758 TimeTrans 7.861832618713379
